80 858380907
43 80 16 72 3 57 39 30 58 31 76 60 46 40 73 10 23 71 26 32 22 59 42 41 15 4 51 68 35 48 5 44 65 20 27 78 19 69 37 77 21 56 54 24 67 6 49 14 63 29 9 75 53 47 25 55 7 18 17 33 70 11 74 61 8 66 36 12 45 64 79 62 2 28 38 13 52 50 1 34 
